2,9,10,11,12,18,32,34,35,41,56,57,466,467,470,471,472,473,474,475,476,477,478,479,482,483,484,485,486,487,488,489,490,491,492,493,494,495,496,497,498,499,502,503,504,505,506,507,648,649,740,747,749,750,1276,1277,1278,1279,1280,1281,1286,1287,1288,1289,1352,1353,1360,1361,1362,1363,1364,1365,1366,1367,1368,1369,1370,1371,1372,1373,1374,1375,1378,1380,1381,1382,1383,1386,1389,1575,1577,1578,1579,1580,1581,1664,1667,1670,1671,1672,1673,1675,1692,1694,1695,1701,1702,1707,1714,1715,1748,1749,1750,1751,1753,1755,1761,1763